Maximize
f: 310 x1+ 310 y1 +310 z1 + 380 x2 + 380 y2 + 380 z2 + 350 x3 + 350 y3 + 350 z3 + 285 x4 + 285 y4 + 285 z4  
Subject To
a1: x1+x2+x3+x4<=10
a2: y1+y2+y3+y4<=16
a3: z1+z2+z3+z4<=8
b1: x1+y1+z1<=18
b2: x2+y2+z2<=15
b3: x3+y3+z3<=23
b4: x4+y4+z4<=12
c1: 480 x1+650 x2+580 x3+390 x4<=6800
c2: 480 y1+650 y2+580 y3+390 y4<=8700
c3: 480 z1+650 z2+580 z3+390 z4<=5300
d1: 0.1 x1+ 0.1 x2+ 0.1 x3 +0.1 x4- 0.0625 y1 -0.0625 y2- 0.0625 y3 -0.0625 y4=0
d2: 0.0625 y1 +0.0625 y2+0.0625 y3 +0.0625 y4 -0.125 z1- 0.125 z2- 0.125 z3 -0.125 z4=0

End